webassembly/ejemplos_dzn/folder14_json_64.dzn
TERM = { '.', 's(2)', 'in_1', 'local_0', 'local_1', 'in_6', 'in_2', 'in_4', 'in_3', 'in_8', 's(1)', 's(0)', 'in_7', 'in_5', 's(3)', 'in_0'};
null = '.';
s = 14;
n = 14;
ndeps = 2;
max_registers_sz = 5;
NR = 2;
registers = [|'local_0', 's(0)', |'local_1', 'in_8'|];
dependencies = [|'i32.store8_1', 'i32.store16_8', |'i32.store16_8', 'i32.load16_u_13'|];
GET_ENUM = { GET1, GET2, GET3, GET4, GET5, GET6, GET7};
SET_ENUM = { SET1, SET2, SET3, SET4, SET5, SET6, SET7};
TEE_ENUM = { TEE1, TEE2, TEE3, TEE4, TEE5, TEE6, TEE7};
N = 6;
OP = { 'i32.store8_1', 'i32.add_0', 'i32.add_1', 'i32.store16_8', 'i32.const_0', 'i32.load16_u_13' };
in_ops = [2, 2, 2, 2, 0, 1 ];
out_ops = [0, 1, 1, 0, 1, 1 ];
in1 = ['in_1', 'in_3', 's(0)', 's(1)', '.', 's(3)' ];
in2 = ['in_2', 'in_4', 'in_5', 's(1)', '.', '.' ];
in3 = ['.', '.', '.', '.', '.', '.' ];
out1 = ['.', 's(0)', 's(1)', '.', 's(3)', 's(2)' ];
out2 = ['.', '.', '.', '.', '.', '.' ];
out3 = ['.', '.', '.', '.', '.', '.' ];
comm = [false, true, true, false, false, false ];
gas = [1, 1, 1, 1, 1, 1 ];
sz = [1, 1, 1, 1, 1, 1 ];
stor = [true, false, false, true, false, false ];
lb = [ 1, 1, 1, 1, 1, 1 ];
ub = [ 14, 14, 14, 14, 14, 14 ];
startstack = [ 'in_0', 'in_1', 'in_2', 'in_3', 'in_4', 'in_5', 'in_6', 'in_7', 'in_8', null, null, null, null, null ];
endstack = [ 's(2)', 'in_8', null, null, null, null, null, null, null, null, null, null, null, null ];
