webassembly/ejemplos_results/14/folder14_json_64.txt
value = 14;
fgas = [2, 1, 1, 1, 1, 2, 1, 1, 1, 1, 1, 1, 1, 1];
fsize = [1, 1, 1, 1, 1, 1, 1, 1, 1, 1, 1, 1, 1, 1];
states = 
[|   in_0,   in_1,   in_2, in_3, in_4, in_5, in_6, in_7, in_8, '.', '.', '.', '.', '.'
 |   in_1,   in_2,   in_3, in_4, in_5, in_6, in_7, in_8,  '.', '.', '.', '.', '.', '.'
 |   in_1,   in_2,   in_3, in_4, in_5, in_6, in_7, in_8,  '.', '.', '.', '.', '.', '.'
 | 's(1)', 's(1)',   in_5, in_6, in_7, in_8,  '.',  '.',  '.', '.', '.', '.', '.', '.'
 | 's(3)', 's(1)', 's(1)', in_5, in_6, in_7, in_8,  '.',  '.', '.', '.', '.', '.', '.'
 | 's(2)', 's(1)', 's(1)', in_5, in_6, in_7, in_8,  '.',  '.', '.', '.', '.', '.', '.'
 | 's(1)', 's(1)',   in_5, in_6, in_7, in_8,  '.',  '.',  '.', '.', '.', '.', '.', '.'
 |   in_4,   in_3,   in_7, in_8,  '.',  '.',  '.',  '.',  '.', '.', '.', '.', '.', '.'
 | 's(0)',   in_5,   in_8,  '.',  '.',  '.',  '.',  '.',  '.', '.', '.', '.', '.', '.'
 | 's(0)',   in_5,   in_8,  '.',  '.',  '.',  '.',  '.',  '.', '.', '.', '.', '.', '.'
 | 's(1)',   in_8,    '.',  '.',  '.',  '.',  '.',  '.',  '.', '.', '.', '.', '.', '.'
 |   in_8,    '.',    '.',  '.',  '.',  '.',  '.',  '.',  '.', '.', '.', '.', '.', '.'
 |   in_8,    '.',    '.',  '.',  '.',  '.',  '.',  '.',  '.', '.', '.', '.', '.', '.'
 | 's(3)',   in_8,    '.',  '.',  '.',  '.',  '.',  '.',  '.', '.', '.', '.', '.', '.'
 | 's(2)',   in_8,    '.',  '.',  '.',  '.',  '.',  '.',  '.', '.', '.', '.', '.', '.'
 |];
register_states = 
[| local_0, local_1, '.', '.', '.', '.', '.'
 | local_0, local_1, '.', '.', '.', '.', '.'
 | local_0,    in_1, '.', '.', '.', '.', '.'
 | local_0,    in_1, '.', '.', '.', '.', '.'
 | local_0,    in_1, '.', '.', '.', '.', '.'
 | local_0,    in_1, '.', '.', '.', '.', '.'
 | local_0,    in_1, '.', '.', '.', '.', '.'
 | local_0,    in_1, '.', '.', '.', '.', '.'
 | local_0,    in_1, '.', '.', '.', '.', '.'
 |  's(0)',    in_1, '.', '.', '.', '.', '.'
 |  's(0)',    in_1, '.', '.', '.', '.', '.'
 |  's(0)',  's(1)', '.', '.', '.', '.', '.'
 |  's(0)',    in_8, '.', '.', '.', '.', '.'
 |  's(0)',    in_8, '.', '.', '.', '.', '.'
 |  's(0)',    in_8, '.', '.', '.', '.', '.'
 |];
program = [POP, TEE(TEE2), O('i32.store8_1'), O('i32.const_0'), O('i32.load16_u_13'), POP, O('i32.store16_8'), O('i32.add_0'), TEE(TEE1), O('i32.add_1'), S(SET2), TEE(TEE2), O('i32.const_0'), O('i32.load16_u_13')];
% time elapsed: 0.48 s
----------
value = 12;
fgas = [1, 1, 1, 1, 1, 1, 1, 1, 1, 1, 2, 1, 0, 0];
fsize = [1, 1, 1, 1, 1, 1, 1, 1, 1, 1, 1, 1, 1, 1];
states = 
[|   in_0,   in_1, in_2, in_3, in_4, in_5, in_6, in_7, in_8, '.', '.', '.', '.', '.'
 |   in_0,   in_1, in_2, in_3, in_4, in_5, in_6, in_7, in_8, '.', '.', '.', '.', '.'
 |   in_1,   in_2, in_3, in_4, in_5, in_6, in_7, in_8,  '.', '.', '.', '.', '.', '.'
 |   in_4,   in_3, in_5, in_6, in_7, in_8,  '.',  '.',  '.', '.', '.', '.', '.', '.'
 | 's(0)',   in_5, in_6, in_7, in_8,  '.',  '.',  '.',  '.', '.', '.', '.', '.', '.'
 | 's(0)',   in_5, in_6, in_7, in_8,  '.',  '.',  '.',  '.', '.', '.', '.', '.', '.'
 | 's(1)', 's(1)', in_7, in_8,  '.',  '.',  '.',  '.',  '.', '.', '.', '.', '.', '.'
 |   in_8,   in_8,  '.',  '.',  '.',  '.',  '.',  '.',  '.', '.', '.', '.', '.', '.'
 |   in_8,    '.',  '.',  '.',  '.',  '.',  '.',  '.',  '.', '.', '.', '.', '.', '.'
 | 's(3)',   in_8,  '.',  '.',  '.',  '.',  '.',  '.',  '.', '.', '.', '.', '.', '.'
 | 's(3)', 's(3)', in_8,  '.',  '.',  '.',  '.',  '.',  '.', '.', '.', '.', '.', '.'
 | 's(3)',   in_8,  '.',  '.',  '.',  '.',  '.',  '.',  '.', '.', '.', '.', '.', '.'
 | 's(2)',   in_8,  '.',  '.',  '.',  '.',  '.',  '.',  '.', '.', '.', '.', '.', '.'
 | 's(2)',   in_8,  '.',  '.',  '.',  '.',  '.',  '.',  '.', '.', '.', '.', '.', '.'
 | 's(2)',   in_8,  '.',  '.',  '.',  '.',  '.',  '.',  '.', '.', '.', '.', '.', '.'
 |];
register_states = 
[| local_0, local_1, '.', '.', '.', '.', '.'
 | local_0,    in_0, '.', '.', '.', '.', '.'
 |    in_0,    in_0, '.', '.', '.', '.', '.'
 |    in_0,    in_0, '.', '.', '.', '.', '.'
 |    in_0,    in_0, '.', '.', '.', '.', '.'
 |  's(0)',    in_0, '.', '.', '.', '.', '.'
 |  's(0)',    in_0, '.', '.', '.', '.', '.'
 |  's(0)',    in_0, '.', '.', '.', '.', '.'
 |  's(0)',    in_8, '.', '.', '.', '.', '.'
 |  's(0)',    in_8, '.', '.', '.', '.', '.'
 |  's(0)',    in_8, '.', '.', '.', '.', '.'
 |  's(0)',    in_8, '.', '.', '.', '.', '.'
 |  's(0)',    in_8, '.', '.', '.', '.', '.'
 |  's(0)',    in_8, '.', '.', '.', '.', '.'
 |  's(0)',    in_8, '.', '.', '.', '.', '.'
 |];
program = [TEE(TEE2), S(SET1), O('i32.store8_1'), O('i32.add_0'), TEE(TEE1), O('i32.add_1'), O('i32.store16_8'), S(SET2), O('i32.const_0'), O('i32.const_0'), POP, O('i32.load16_u_13'), NOP, NOP];
% time elapsed: 0.94 s
----------
=====UNKNOWN=====
% time elapsed: 0.98 s
